100
47 5
1 19
97 35
23 79
77 87
3 9
5 27
41 53
51 87
67 73
89 45
71 99
11 1
85 85
57 11
57 85
71 33
61 13
39 15
13 59
43 99
87 73
11 37
21 11
77 81
3 63
47 95
53 75
73 55
81 71
89 75
11 9
27 37
95 59
63 63
37 21
33 47
23 63
13 55
47 93
45 43
83 7
69 91
13 11
37 15
53 59
97 83
75 31
DEMAND_SECTION Best value: 1073
0 
20 
14 
5 
11 
22 
25 
2 
18 
10 
26 
14 
22 
9 
11 
18 
24 
15 
23 
16 
14 
8 
5 
12 
8 
16 
12 
15 
9 
2 
10 
2 
3 
20 
3 
13 
25 
23 
8 
16 
9 
14 
4 
13 
7 
16 
18 
16 